n = 25
Q1 = [0 0 0 38 26 40 0 0 43 0 0 0 28 0 0 0 0 0 0 0 0 0 0 0 0; 0 0 23 0 43 0 0 0 0 32 37 0 0 0 0 0 0 0 50 0 0 0 0 13 0; 0 0 0 0 0 0 0 0 10 0 45 0 0 0 0 0 0 0 37 0 0 29 5 0 0; 0 0 0 0 18 27 0 30 15 0 0 0 0 0 0 31 0 0 0 33 0 0 0 0 0; 0 0 0 0 0 0 0 0 0 12 0 6 7 0 0 0 0 0 0 0 0 0 0 47 0; 0 0 0 0 0 0 0 0 10 0 42 0 0 0 0 0 0 0 40 0 28 0 34 8 0; 0 0 0 0 0 0 0 0 0 0 0 0 0 0 0 0 0 33 20 31 0 0 24 0 0; 0 0 0 0 0 0 0 0 0 0 0 0 0 0 0 0 0 0 0 0 25 0 0 26 0; 0 0 0 0 0 0 0 0 0 0 0 0 0 0 0 0 0 0 14 6 0 0 0 0 0; 0 0 0 0 0 0 0 0 0 0 0 0 0 39 0 0 0 37 0 0 0 0 29 0 22; 0 0 0 0 0 0 0 0 0 0 0 0 0 0 0 39 0 0 0 0 20 24 34 0 0; 0 0 0 0 0 0 0 0 0 0 0 0 0 0 0 0 0 0 0 0 34 0 0 14 0; 0 0 0 0 0 0 0 0 0 0 0 0 0 0 0 0 0 28 0 0 39 0 0 0 0; 0 0 0 0 0 0 0 0 0 0 0 0 0 0 0 0 0 45 0 0 0 0 0 0 0; 0 0 0 0 0 0 0 0 0 0 0 0 0 0 0 0 0 0 0 0 40 32 41 0 0; 0 0 0 0 0 0 0 0 0 0 0 0 0 0 0 0 0 27 0 42 0 44 0 0 0; 0 0 0 0 0 0 0 0 0 0 0 0 0 0 0 0 0 0 0 26 0 0 0 0 0; 0 0 0 0 0 0 0 0 0 0 0 0 0 0 0 0 0 0 0 0 0 26 0 33 0; 0 0 0 0 0 0 0 0 0 0 0 0 0 0 0 0 0 0 0 0 0 0 36 17 0; 0 0 0 0 0 0 0 0 0 0 0 0 0 0 0 0 0 0 0 0 44 0 0 15 0; 0 0 0 0 0 0 0 0 0 0 0 0 0 0 0 0 0 0 0 0 0 0 0 0 45; 0 0 0 0 0 0 0 0 0 0 0 0 0 0 0 0 0 0 0 0 0 0 0 0 0; 0 0 0 0 0 0 0 0 0 0 0 0 0 0 0 0 0 0 0 0 0 0 0 0 0; 0 0 0 0 0 0 0 0 0 0 0 0 0 0 0 0 0 0 0 0 0 0 0 0 0; 0 0 0 0 0 0 0 0 0 0 0 0 0 0 0 0 0 0 0 0 0 0 0 0 0]
Q2 = [0.0 0.0 0.0 5.0 22.0 2.0 0.0 0.0 6.0 0.0 0.0 0.0 1.0 0.0 0.0 0.0 0.0 0.0 0.0 0.0 0.0 0.0 0.0 0.0 0.0; 0.0 0.0 38.0 0.0 6.0 0.0 0.0 0.0 0.0 2.0 6.0 0.0 0.0 0.0 0.0 0.0 0.0 0.0 0.0 0.0 0.0 0.0 0.0 43.0 0.0; 0.0 0.0 0.0 0.0 0.0 0.0 0.0 0.0 49.0 0.0 0.0 0.0 0.0 0.0 0.0 0.0 0.0 0.0 13.0 0.0 0.0 9.0 45.0 0.0 0.0; 0.0 0.0 0.0 0.0 48.0 17.0 0.0 9.0 47.0 0.0 0.0 0.0 0.0 0.0 0.0 6.0 0.0 0.0 0.0 16.0 0.0 0.0 0.0 0.0 0.0; 0.0 0.0 0.0 0.0 0.0 0.0 0.0 0.0 0.0 39.0 0.0 49.0 49.0 0.0 0.0 0.0 0.0 0.0 0.0 0.0 0.0 0.0 0.0 1.0 0.0; 0.0 0.0 0.0 0.0 0.0 0.0 0.0 0.0 48.0 0.0 3.0 0.0 0.0 0.0 0.0 0.0 0.0 0.0 9.0 0.0 7.0 0.0 11.0 49.0 0.0; 0.0 0.0 0.0 0.0 0.0 0.0 0.0 0.0 0.0 0.0 0.0 0.0 0.0 0.0 0.0 0.0 0.0 17.0 30.0 17.0 0.0 0.0 46.0 0.0 0.0; 0.0 0.0 0.0 0.0 0.0 0.0 0.0 0.0 0.0 0.0 0.0 0.0 0.0 0.0 0.0 0.0 0.0 0.0 0.0 0.0 16.0 0.0 0.0 20.0 0.0; 0.0 0.0 0.0 0.0 0.0 0.0 0.0 0.0 0.0 0.0 0.0 0.0 0.0 0.0 0.0 0.0 0.0 0.0 43.0 49.0 0.0 0.0 0.0 0.0 0.0; 0.0 0.0 0.0 0.0 0.0 0.0 0.0 0.0 0.0 0.0 0.0 0.0 0.0 11.0 0.0 0.0 0.0 13.0 0.0 0.0 0.0 0.0 9.0 0.0 34.0; 0.0 0.0 0.0 0.0 0.0 0.0 0.0 0.0 0.0 0.0 0.0 0.0 0.0 0.0 0.0 7.0 0.0 0.0 0.0 0.0 39.0 41.0 7.0 0.0 0.0; 0.0 0.0 0.0 0.0 0.0 0.0 0.0 0.0 0.0 0.0 0.0 0.0 0.0 0.0 0.0 0.0 0.0 0.0 0.0 0.0 9.0 0.0 0.0 50.0 0.0; 0.0 0.0 0.0 0.0 0.0 0.0 0.0 0.0 0.0 0.0 0.0 0.0 0.0 0.0 0.0 0.0 0.0 0.0 0.0 0.0 4.0 0.0 0.0 0.0 0.0; 0.0 0.0 0.0 0.0 0.0 0.0 0.0 0.0 0.0 0.0 0.0 0.0 0.0 0.0 0.0 0.0 0.0 0.0 0.0 0.0 0.0 0.0 0.0 0.0 0.0; 0.0 0.0 0.0 0.0 0.0 0.0 0.0 0.0 0.0 0.0 0.0 0.0 0.0 0.0 0.0 0.0 0.0 0.0 0.0 0.0 5.0 14.0 8.0 0.0 0.0; 0.0 0.0 0.0 0.0 0.0 0.0 0.0 0.0 0.0 0.0 0.0 0.0 0.0 0.0 0.0 0.0 0.0 12.0 0.0 3.0 0.0 0.0 0.0 0.0 0.0; 0.0 0.0 0.0 0.0 0.0 0.0 0.0 0.0 0.0 0.0 0.0 0.0 0.0 0.0 0.0 0.0 0.0 0.0 0.0 12.0 0.0 0.0 0.0 0.0 0.0; 0.0 0.0 0.0 0.0 0.0 0.0 0.0 0.0 0.0 0.0 0.0 0.0 0.0 0.0 0.0 0.0 0.0 0.0 0.0 0.0 0.0 14.0 0.0 9.0 0.0; 0.0 0.0 0.0 0.0 0.0 0.0 0.0 0.0 0.0 0.0 0.0 0.0 0.0 0.0 0.0 0.0 0.0 0.0 0.0 0.0 0.0 0.0 7.0 33.0 0.0; 0.0 0.0 0.0 0.0 0.0 0.0 0.0 0.0 0.0 0.0 0.0 0.0 0.0 0.0 0.0 0.0 0.0 0.0 0.0 0.0 4.0 0.0 0.0 35.0 0.0; 0.0 0.0 0.0 0.0 0.0 0.0 0.0 0.0 0.0 0.0 0.0 0.0 0.0 0.0 0.0 0.0 0.0 0.0 0.0 0.0 0.0 0.0 0.0 0.0 0.0; 0.0 0.0 0.0 0.0 0.0 0.0 0.0 0.0 0.0 0.0 0.0 0.0 0.0 0.0 0.0 0.0 0.0 0.0 0.0 0.0 0.0 0.0 0.0 0.0 0.0; 0.0 0.0 0.0 0.0 0.0 0.0 0.0 0.0 0.0 0.0 0.0 0.0 0.0 0.0 0.0 0.0 0.0 0.0 0.0 0.0 0.0 0.0 0.0 0.0 0.0; 0.0 0.0 0.0 0.0 0.0 0.0 0.0 0.0 0.0 0.0 0.0 0.0 0.0 0.0 0.0 0.0 0.0 0.0 0.0 0.0 0.0 0.0 0.0 0.0 0.0; 0.0 0.0 0.0 0.0 0.0 0.0 0.0 0.0 0.0 0.0 0.0 0.0 0.0 0.0 0.0 0.0 0.0 0.0 0.0 0.0 0.0 0.0 0.0 0.0 0.0]
Q3 = [0 70 70 4 13 17 70 70 1 70 70 70 68 70 70 70 70 70 70 70 70 70 70 70 70; 0 0 2 70 6 70 70 70 70 45 20 70 70 70 70 70 70 70 4 70 70 70 70 7 70; 0 0 0 70 70 70 70 70 10 70 13 70 70 70 70 70 70 70 13 70 70 19 11 70 70; 0 0 0 0 4 3 70 28 0 70 70 70 70 70 70 13 70 70 70 17 70 70 70 70 70; 0 0 0 0 0 70 70 70 70 17 70 7 6 70 70 70 70 70 70 70 70 70 70 19 70; 0 0 0 0 0 0 70 70 9 70 25 70 70 70 70 70 70 70 16 70 17 70 4 5 70; 0 0 0 0 0 0 0 70 70 70 70 70 70 70 70 70 70 11 2 12 70 70 0 70 70; 0 0 0 0 0 0 0 0 70 70 70 70 70 70 70 70 70 70 70 70 15 70 70 11 70; 0 0 0 0 0 0 0 0 0 70 70 70 70 70 70 70 70 70 5 1 70 70 70 70 70; 0 0 0 0 0 0 0 0 0 0 70 70 70 8 70 70 70 20 70 70 70 70 10 70 5; 0 0 0 0 0 0 0 0 0 0 0 70 70 70 70 23 70 70 70 70 7 1 28 70 70; 0 0 0 0 0 0 0 0 0 0 0 0 70 70 70 70 70 70 70 70 15 70 70 4 70; 0 0 0 0 0 0 0 0 0 0 0 0 0 70 70 70 70 52 70 70 15 70 70 70 70; 0 0 0 0 0 0 0 0 0 0 0 0 0 0 70 70 70 20 70 70 70 70 70 70 70; 0 0 0 0 0 0 0 0 0 0 0 0 0 0 0 70 70 70 70 70 9 21 1 70 70; 0 0 0 0 0 0 0 0 0 0 0 0 0 0 0 0 70 4 70 15 70 19 70 70 70; 0 0 0 0 0 0 0 0 0 0 0 0 0 0 0 0 0 70 70 22 70 70 70 70 70; 0 0 0 0 0 0 0 0 0 0 0 0 0 0 0 0 0 0 70 70 70 1 70 10 70; 0 0 0 0 0 0 0 0 0 0 0 0 0 0 0 0 0 0 0 70 70 70 16 17 70; 0 0 0 0 0 0 0 0 0 0 0 0 0 0 0 0 0 0 0 0 16 70 70 8 70; 0 0 0 0 0 0 0 0 0 0 0 0 0 0 0 0 0 0 0 0 0 70 70 70 21; 0 0 0 0 0 0 0 0 0 0 0 0 0 0 0 0 0 0 0 0 0 0 70 70 70; 0 0 0 0 0 0 0 0 0 0 0 0 0 0 0 0 0 0 0 0 0 0 0 70 70; 0 0 0 0 0 0 0 0 0 0 0 0 0 0 0 0 0 0 0 0 0 0 0 0 70; 0 0 0 0 0 0 0 0 0 0 0 0 0 0 0 0 0 0 0 0 0 0 0 0 0]
